p cnf 375 890
1 2 3  0
-4 1 0
4 -1 0
-5 4 2 0
5 -4 0
5 -2 0
-4 -2 0
-5 -3 0
6 7 8  0
-9 6 0
9 -6 0
-10 9 7 0
10 -9 0
10 -7 0
-9 -7 0
-10 -8 0
11 12 13  0
-14 11 0
14 -11 0
-15 14 12 0
15 -14 0
15 -12 0
-14 -12 0
-15 -13 0
16 17 18  0
-19 16 0
19 -16 0
-20 19 17 0
20 -19 0
20 -17 0
-19 -17 0
-20 -18 0
21 22 23  0
-24 21 0
24 -21 0
-25 24 22 0
25 -24 0
25 -22 0
-24 -22 0
-25 -23 0
26 27 28  0
-29 26 0
29 -26 0
-30 29 27 0
30 -29 0
30 -27 0
-29 -27 0
-30 -28 0
31 32 33  0
-34 31 0
34 -31 0
-35 34 32 0
35 -34 0
35 -32 0
-34 -32 0
-35 -33 0
36 37 38  0
-39 36 0
39 -36 0
-40 39 37 0
40 -39 0
40 -37 0
-39 -37 0
-40 -38 0
41 42 43  0
-44 41 0
44 -41 0
-45 44 42 0
45 -44 0
45 -42 0
-44 -42 0
-45 -43 0
46 47 48  0
-49 46 0
49 -46 0
-50 49 47 0
50 -49 0
50 -47 0
-49 -47 0
-50 -48 0
51 52 53  0
-54 51 0
54 -51 0
-55 54 52 0
55 -54 0
55 -52 0
-54 -52 0
-55 -53 0
56 57 58  0
-59 56 0
59 -56 0
-60 59 57 0
60 -59 0
60 -57 0
-59 -57 0
-60 -58 0
61 62 63  0
-64 61 0
64 -61 0
-65 64 62 0
65 -64 0
65 -62 0
-64 -62 0
-65 -63 0
66 67 68  0
-69 66 0
69 -66 0
-70 69 67 0
70 -69 0
70 -67 0
-69 -67 0
-70 -68 0
71 72 73  0
-74 71 0
74 -71 0
-75 74 72 0
75 -74 0
75 -72 0
-74 -72 0
-75 -73 0
76 77 78  0
-79 76 0
79 -76 0
-80 79 77 0
80 -79 0
80 -77 0
-79 -77 0
-80 -78 0
81 82 83  0
-84 81 0
84 -81 0
-85 84 82 0
85 -84 0
85 -82 0
-84 -82 0
-85 -83 0
86 87 88  0
-89 86 0
89 -86 0
-90 89 87 0
90 -89 0
90 -87 0
-89 -87 0
-90 -88 0
91 92 93  0
-94 91 0
94 -91 0
-95 94 92 0
95 -94 0
95 -92 0
-94 -92 0
-95 -93 0
96 97 98  0
-99 96 0
99 -96 0
-100 99 97 0
100 -99 0
100 -97 0
-99 -97 0
-100 -98 0
101 102 103  0
-104 101 0
104 -101 0
-105 104 102 0
105 -104 0
105 -102 0
-104 -102 0
-105 -103 0
106 107 108  0
-109 106 0
109 -106 0
-110 109 107 0
110 -109 0
110 -107 0
-109 -107 0
-110 -108 0
111 112 113  0
-114 111 0
114 -111 0
-115 114 112 0
115 -114 0
115 -112 0
-114 -112 0
-115 -113 0
116 117 118  0
-119 116 0
119 -116 0
-120 119 117 0
120 -119 0
120 -117 0
-119 -117 0
-120 -118 0
121 122 123  0
-124 121 0
124 -121 0
-125 124 122 0
125 -124 0
125 -122 0
-124 -122 0
-125 -123 0
126 127 128  0
-129 126 0
129 -126 0
-130 129 127 0
130 -129 0
130 -127 0
-129 -127 0
-130 -128 0
131 132 133  0
-134 131 0
134 -131 0
-135 134 132 0
135 -134 0
135 -132 0
-134 -132 0
-135 -133 0
136 137 138  0
-139 136 0
139 -136 0
-140 139 137 0
140 -139 0
140 -137 0
-139 -137 0
-140 -138 0
141 142 143  0
-144 141 0
144 -141 0
-145 144 142 0
145 -144 0
145 -142 0
-144 -142 0
-145 -143 0
146 147 148  0
-149 146 0
149 -146 0
-150 149 147 0
150 -149 0
150 -147 0
-149 -147 0
-150 -148 0
151 152 153  0
-154 151 0
154 -151 0
-155 154 152 0
155 -154 0
155 -152 0
-154 -152 0
-155 -153 0
156 157 158  0
-159 156 0
159 -156 0
-160 159 157 0
160 -159 0
160 -157 0
-159 -157 0
-160 -158 0
161 162 163  0
-164 161 0
164 -161 0
-165 164 162 0
165 -164 0
165 -162 0
-164 -162 0
-165 -163 0
166 167 168  0
-169 166 0
169 -166 0
-170 169 167 0
170 -169 0
170 -167 0
-169 -167 0
-170 -168 0
171 172 173  0
-174 171 0
174 -171 0
-175 174 172 0
175 -174 0
175 -172 0
-174 -172 0
-175 -173 0
176 177 178  0
-179 176 0
179 -176 0
-180 179 177 0
180 -179 0
180 -177 0
-179 -177 0
-180 -178 0
181 182 183  0
-184 181 0
184 -181 0
-185 184 182 0
185 -184 0
185 -182 0
-184 -182 0
-185 -183 0
186 187 188  0
-189 186 0
189 -186 0
-190 189 187 0
190 -189 0
190 -187 0
-189 -187 0
-190 -188 0
191 192 193  0
-194 191 0
194 -191 0
-195 194 192 0
195 -194 0
195 -192 0
-194 -192 0
-195 -193 0
196 197 198  0
-199 196 0
199 -196 0
-200 199 197 0
200 -199 0
200 -197 0
-199 -197 0
-200 -198 0
201 202 203  0
-204 201 0
204 -201 0
-205 204 202 0
205 -204 0
205 -202 0
-204 -202 0
-205 -203 0
206 207 208  0
-209 206 0
209 -206 0
-210 209 207 0
210 -209 0
210 -207 0
-209 -207 0
-210 -208 0
211 212 213  0
-214 211 0
214 -211 0
-215 214 212 0
215 -214 0
215 -212 0
-214 -212 0
-215 -213 0
216 217 218  0
-219 216 0
219 -216 0
-220 219 217 0
220 -219 0
220 -217 0
-219 -217 0
-220 -218 0
221 222 223  0
-224 221 0
224 -221 0
-225 224 222 0
225 -224 0
225 -222 0
-224 -222 0
-225 -223 0
226 227 228  0
-229 226 0
229 -226 0
-230 229 227 0
230 -229 0
230 -227 0
-229 -227 0
-230 -228 0
231 232 233  0
-234 231 0
234 -231 0
-235 234 232 0
235 -234 0
235 -232 0
-234 -232 0
-235 -233 0
236 237 238  0
-239 236 0
239 -236 0
-240 239 237 0
240 -239 0
240 -237 0
-239 -237 0
-240 -238 0
241 242 243  0
-244 241 0
244 -241 0
-245 244 242 0
245 -244 0
245 -242 0
-244 -242 0
-245 -243 0
246 247 248  0
-249 246 0
249 -246 0
-250 249 247 0
250 -249 0
250 -247 0
-249 -247 0
-250 -248 0
251 252 253  0
-254 251 0
254 -251 0
-255 254 252 0
255 -254 0
255 -252 0
-254 -252 0
-255 -253 0
256 257 258  0
-259 256 0
259 -256 0
-260 259 257 0
260 -259 0
260 -257 0
-259 -257 0
-260 -258 0
261 262 263  0
-264 261 0
264 -261 0
-265 264 262 0
265 -264 0
265 -262 0
-264 -262 0
-265 -263 0
266 267 268  0
-269 266 0
269 -266 0
-270 269 267 0
270 -269 0
270 -267 0
-269 -267 0
-270 -268 0
271 272 273  0
-274 271 0
274 -271 0
-275 274 272 0
275 -274 0
275 -272 0
-274 -272 0
-275 -273 0
276 277 278  0
-279 276 0
279 -276 0
-280 279 277 0
280 -279 0
280 -277 0
-279 -277 0
-280 -278 0
281 282 283  0
-284 281 0
284 -281 0
-285 284 282 0
285 -284 0
285 -282 0
-284 -282 0
-285 -283 0
286 287 288  0
-289 286 0
289 -286 0
-290 289 287 0
290 -289 0
290 -287 0
-289 -287 0
-290 -288 0
291 292 293  0
-294 291 0
294 -291 0
-295 294 292 0
295 -294 0
295 -292 0
-294 -292 0
-295 -293 0
296 297 298  0
-299 296 0
299 -296 0
-300 299 297 0
300 -299 0
300 -297 0
-299 -297 0
-300 -298 0
301 302 303  0
-304 301 0
304 -301 0
-305 304 302 0
305 -304 0
305 -302 0
-304 -302 0
-305 -303 0
306 307 308  0
-309 306 0
309 -306 0
-310 309 307 0
310 -309 0
310 -307 0
-309 -307 0
-310 -308 0
311 312 313  0
-314 311 0
314 -311 0
-315 314 312 0
315 -314 0
315 -312 0
-314 -312 0
-315 -313 0
316 317 318  0
-319 316 0
319 -316 0
-320 319 317 0
320 -319 0
320 -317 0
-319 -317 0
-320 -318 0
321 322 323  0
-324 321 0
324 -321 0
-325 324 322 0
325 -324 0
325 -322 0
-324 -322 0
-325 -323 0
326 327 328  0
-329 326 0
329 -326 0
-330 329 327 0
330 -329 0
330 -327 0
-329 -327 0
-330 -328 0
331 332 333  0
-334 331 0
334 -331 0
-335 334 332 0
335 -334 0
335 -332 0
-334 -332 0
-335 -333 0
336 337 338  0
-339 336 0
339 -336 0
-340 339 337 0
340 -339 0
340 -337 0
-339 -337 0
-340 -338 0
341 342 343  0
-344 341 0
344 -341 0
-345 344 342 0
345 -344 0
345 -342 0
-344 -342 0
-345 -343 0
346 347 348  0
-349 346 0
349 -346 0
-350 349 347 0
350 -349 0
350 -347 0
-349 -347 0
-350 -348 0
351 352 353  0
-354 351 0
354 -351 0
-355 354 352 0
355 -354 0
355 -352 0
-354 -352 0
-355 -353 0
356 357 358  0
-359 356 0
359 -356 0
-360 359 357 0
360 -359 0
360 -357 0
-359 -357 0
-360 -358 0
361 362 363  0
-364 361 0
364 -361 0
-365 364 362 0
365 -364 0
365 -362 0
-364 -362 0
-365 -363 0
366 367 368  0
-369 366 0
369 -366 0
-370 369 367 0
370 -369 0
370 -367 0
-369 -367 0
-370 -368 0
371 372 373  0
-374 371 0
374 -371 0
-375 374 372 0
375 -374 0
375 -372 0
-374 -372 0
-375 -373 0
166 213 236 0
323 82 283 0
141 321 301 0
156 227 83 0
13 266 167 0
6 71 102 0
153 198 351 0
341 171 368 0
221 131 321 0
327 248 142 0
52 367 142 0
203 172 291 0
271 157 53 0
47 61 117 0
277 113 173 0
66 171 371 0
176 372 107 0
11 311 327 0
196 146 317 0
262 216 246 0
138 263 256 0
318 272 73 0
303 7 21 0
172 292 216 0
197 162 191 0
216 87 151 0
306 313 267 0
161 337 51 0
313 142 156 0
58 73 63 0
163 168 77 0
108 181 103 0
192 37 311 0
278 83 128 0
167 216 32 0
16 62 212 0
267 38 127 0
32 282 238 0
36 123 62 0
243 57 356 0
246 312 321 0
332 238 171 0
272 76 153 0
53 337 77 0
301 137 281 0
216 142 346 0
71 307 243 0
338 136 101 0
338 38 131 0
58 342 358 0
291 373 363 0
283 36 243 0
278 112 372 0
372 156 347 0
237 132 103 0
51 11 231 0
16 177 236 0
216 11 56 0
198 112 346 0
33 148 292 0
156 152 278 0
58 27 118 0
42 168 51 0
207 168 106 0
62 233 186 0
336 263 26 0
262 343 197 0
323 296 173 0
228 366 358 0
38 126 248 0
188 168 93 0
122 271 152 0
56 211 361 0
362 47 371 0
336 328 72 0
286 171 212 0
272 242 312 0
33 147 1 0
281 111 341 0
122 28 277 0
38 236 31 0
356 176 242 0
272 253 283 0
61 242 286 0
167 276 366 0
56 132 126 0
132 353 103 0
308 256 297 0
63 126 42 0
276 333 168 0
243 257 251 0
151 286 228 0
283 158 33 0
146 216 196 0
231 98 337 0
161 58 87 0
352 58 96 0
42 16 351 0
287 322 227 0
268 317 262 0
61 348 353 0
46 183 356 0
12 51 108 0
336 298 148 0
313 113 51 0
152 306 226 0
67 2 141 0
297 152 71 0
261 271 201 0
212 106 272 0
97 153 56 0
81 42 252 0
213 341 38 0
128 212 368 0
213 316 296 0
362 146 193 0
26 92 236 0
253 28 317 0
282 246 351 0
302 207 11 0
341 293 22 0
342 263 372 0
286 81 238 0
146 352 38 0
22 137 92 0
11 293 316 0
181 126 228 0
341 146 223 0
332 298 152 0
263 181 166 0
322 216 256 0
322 331 277 0
341 93 178 0
153 188 327 0
293 18 12 0
137 133 221 0
286 221 12 0
192 253 238 0
218 66 343 0
132 8 122 0
102 118 128 0
17 123 27 0
352 263 121 0
248 268 363 0
292 63 252 0
52 336 32 0
68 342 372 0
201 143 3 0
288 168 36 0
116 278 162 0
22 56 151 0
307 297 292 0
153 177 327 0
26 172 151 0
162 348 353 0
307 2 268 0
182 98 368 0
97 197 293 0
298 33 36 0
151 117 31 0
263 13 188 0
87 346 352 0
196 361 143 0
48 371 306 0
142 118 91 0
238 253 246 0
291 311 21 0
373 131 121 0
152 223 16 0
62 121 301 0
92 191 67 0
172 277 21 0
281 287 261 0
197 343 68 0
83 142 193 0
297 261 281 0
322 86 76 0
31 6 281 0
231 192 287 0
67 18 76 0
46 147 3 0
147 22 57 0
222 338 177 0
272 113 123 0
347 277 283 0
228 243 142 0
313 331 32 0
312 252 257 0
287 346 122 0
198 52 111 0
337 168 223 0
213 368 263 0
331 51 357 0
27 342 66 0
237 211 243 0
243 172 292 0
111 323 333 0
12 286 262 0
252 313 56 0
338 147 93 0
123 101 138 0
83 183 121 0
116 191 342 0
72 132 208 0
266 372 338 0
306 36 331 0
233 123 207 0
261 333 192 0
247 308 6 0
27 1 21 0
373 282 288 0
232 328 173 0
261 152 121 0
18 32 132 0
333 211 108 0
306 367 277 0
336 302 136 0
217 48 122 0
106 46 347 0
56 111 142 0
266 92 178 0
301 158 197 0
103 201 172 0
83 346 181 0
81 241 17 0
177 343 198 0
147 51 127 0
101 166 143 0
138 271 236 0
47 317 278 0
62 277 232 0
317 222 72 0
123 82 363 0
21 333 111 0
253 282 212 0
188 33 78 0
182 152 271 0
147 288 76 0
223 283 156 0
257 61 372 0
111 318 267 0
37 183 252 0
183 236 21 0
367 62 308 0
173 23 117 0
162 86 263 0
266 198 251 0
31 241 38 0
353 18 66 0
27 281 243 0
206 142 276 0
41 91 236 0
341 173 301 0
353 121 88 0
93 316 42 0
168 243 312 0
102 306 357 0
307 88 36 0
197 62 156 0
23 27 273 0
287 81 256 0
177 251 323 0
41 67 241 0
287 266 47 0
286 131 237 0
282 342 108 0
298 137 101 0
267 191 163 0
337 332 357 0
26 126 257 0
352 77 101 0
347 47 146 0
293 207 313 0
97 187 17 0
156 353 348 0
43 166 38 0
67 172 3 0
262 127 173 0
228 113 202 0
346 52 151 0
68 118 77 0
272 307 252 0
158 111 3 0
123 57 37 0
356 12 216 0
86 121 171 0
127 336 131 0
252 121 88 0
266 128 321 0
347 318 361 0
